NAME          DCAP_2_4_3_300_SS233
ROWS
 N  OBJ
 L  CON1
 L  CON2
 L  CON3
 L  CON4
 L  CON5
 L  CON6
 L  CON7
 L  CON8
 L  CON9
 L  CON10
 L  CON11
 L  CON12
 E  CON13
 E  CON14
 E  CON15
 E  CON16
 E  CON17
 E  CON18
 E  CON19
 E  CON20
 E  CON21
 E  CON22
 E  CON23
 E  CON24
COLUMNS
    x[1,1]    OBJ       6.180167      CON1      1.000000    
    x[1,1]    CON7      -1.000000     CON8      -1.000000   
    x[1,1]    CON9      -1.000000   
    x[1,2]    OBJ       6.563535      CON2      1.000000    
    x[1,2]    CON8      -1.000000     CON9      -1.000000   
    x[1,3]    OBJ       7.443064      CON3      1.000000    
    x[1,3]    CON9      -1.000000   
    x[2,1]    OBJ       6.732585      CON4      1.000000    
    x[2,1]    CON10     -1.000000     CON11     -1.000000   
    x[2,1]    CON12     -1.000000   
    x[2,2]    OBJ       5.039546      CON5      1.000000    
    x[2,2]    CON11     -1.000000     CON12     -1.000000   
    x[2,3]    OBJ       6.054841      CON6      1.000000    
    x[2,3]    CON12     -1.000000   
    MARKER    'MARKER'                'INTORG'
    u[1,1]    OBJ       48.076654     CON1      -1.000000   
    u[1,2]    OBJ       20.066487     CON2      -1.000000   
    u[1,3]    OBJ       32.230043     CON3      -1.000000   
    u[2,1]    OBJ       49.996186     CON4      -1.000000   
    u[2,2]    OBJ       49.466655     CON5      -1.000000   
    u[2,3]    OBJ       27.484319     CON6      -1.000000   
    y[1,1,1]  OBJ       6.647299      CON7      0.724475    
    y[1,1,1]  CON13     1.000000    
    y[1,1,2]  OBJ       9.520105      CON8      0.878984    
    y[1,1,2]  CON14     1.000000    
    y[1,1,3]  OBJ       9.930961      CON9      0.640845    
    y[1,1,3]  CON15     1.000000    
    y[1,2,1]  OBJ       8.012710      CON7      1.235396    
    y[1,2,1]  CON16     1.000000    
    y[1,2,2]  OBJ       8.554103      CON8      0.999199    
    y[1,2,2]  CON17     1.000000    
    y[1,2,3]  OBJ       8.595293      CON9      0.535628    
    y[1,2,3]  CON18     1.000000    
    y[1,3,1]  OBJ       7.352412      CON7      1.204207    
    y[1,3,1]  CON19     1.000000    
    y[1,3,2]  OBJ       8.774178      CON8      0.797512    
    y[1,3,2]  CON20     1.000000    
    y[1,3,3]  OBJ       7.500492      CON9      0.769679    
    y[1,3,3]  CON21     1.000000    
    y[1,4,1]  OBJ       5.722572      CON7      0.683919    
    y[1,4,1]  CON22     1.000000    
    y[1,4,2]  OBJ       5.631749      CON8      1.406132    
    y[1,4,2]  CON23     1.000000    
    y[1,4,3]  OBJ       8.390065      CON9      0.888517    
    y[1,4,3]  CON24     1.000000    
    y[2,1,1]  OBJ       8.592605      CON10     0.724475    
    y[2,1,1]  CON13     1.000000    
    y[2,1,2]  OBJ       8.704421      CON11     0.878984    
    y[2,1,2]  CON14     1.000000    
    y[2,1,3]  OBJ       8.222807      CON12     0.640845    
    y[2,1,3]  CON15     1.000000    
    y[2,2,1]  OBJ       6.635264      CON10     1.235396    
    y[2,2,1]  CON16     1.000000    
    y[2,2,2]  OBJ       9.321327      CON11     0.999199    
    y[2,2,2]  CON17     1.000000    
    y[2,2,3]  OBJ       9.419913      CON12     0.535628    
    y[2,2,3]  CON18     1.000000    
    y[2,3,1]  OBJ       7.520692      CON10     1.204207    
    y[2,3,1]  CON19     1.000000    
    y[2,3,2]  OBJ       8.527554      CON11     0.797512    
    y[2,3,2]  CON20     1.000000    
    y[2,3,3]  OBJ       6.721969      CON12     0.769679    
    y[2,3,3]  CON21     1.000000    
    y[2,4,1]  OBJ       8.757250      CON10     0.683919    
    y[2,4,1]  CON22     1.000000    
    y[2,4,2]  OBJ       9.899588      CON11     1.406132    
    y[2,4,2]  CON23     1.000000    
    y[2,4,3]  OBJ       9.020570      CON12     0.888517    
    y[2,4,3]  CON24     1.000000    
    z[1,1]    OBJ       615.634055    CON13     1.000000    
    z[1,2]    OBJ       667.967237    CON14     1.000000    
    z[1,3]    OBJ       994.169289    CON15     1.000000    
    z[2,1]    OBJ       954.148027    CON16     1.000000    
    z[2,2]    OBJ       680.414149    CON17     1.000000    
    z[2,3]    OBJ       874.645968    CON18     1.000000    
    z[3,1]    OBJ       573.696514    CON19     1.000000    
    z[3,2]    OBJ       950.190764    CON20     1.000000    
    z[3,3]    OBJ       511.751713    CON21     1.000000    
    z[4,1]    OBJ       584.022281    CON22     1.000000    
    z[4,2]    OBJ       737.582890    CON23     1.000000    
    z[4,3]    OBJ       646.100231    CON24     1.000000    
    MARKER    'MARKER'                 'INTEND'
RHS
    RHS       CON1      -0.000000     CON2      -0.000000   
    RHS       CON3      -0.000000     CON4      -0.000000   
    RHS       CON5      -0.000000     CON6      -0.000000   
    RHS       CON7      -0.000000     CON8      -0.000000   
    RHS       CON9      -0.000000     CON10     -0.000000   
    RHS       CON11     -0.000000     CON12     -0.000000   
    RHS       CON13     1.000000      CON14     1.000000    
    RHS       CON15     1.000000      CON16     1.000000    
    RHS       CON17     1.000000      CON18     1.000000    
    RHS       CON19     1.000000      CON20     1.000000    
    RHS       CON21     1.000000      CON22     1.000000    
    RHS       CON23     1.000000      CON24     1.000000    
BOUNDS
 BV BOUND     u[1,1]  
 BV BOUND     u[1,2]  
 BV BOUND     u[1,3]  
 BV BOUND     u[2,1]  
 BV BOUND     u[2,2]  
 BV BOUND     u[2,3]  
 BV BOUND     y[1,1,1]
 BV BOUND     y[1,1,2]
 BV BOUND     y[1,1,3]
 BV BOUND     y[1,2,1]
 BV BOUND     y[1,2,2]
 BV BOUND     y[1,2,3]
 BV BOUND     y[1,3,1]
 BV BOUND     y[1,3,2]
 BV BOUND     y[1,3,3]
 BV BOUND     y[1,4,1]
 BV BOUND     y[1,4,2]
 BV BOUND     y[1,4,3]
 BV BOUND     y[2,1,1]
 BV BOUND     y[2,1,2]
 BV BOUND     y[2,1,3]
 BV BOUND     y[2,2,1]
 BV BOUND     y[2,2,2]
 BV BOUND     y[2,2,3]
 BV BOUND     y[2,3,1]
 BV BOUND     y[2,3,2]
 BV BOUND     y[2,3,3]
 BV BOUND     y[2,4,1]
 BV BOUND     y[2,4,2]
 BV BOUND     y[2,4,3]
 BV BOUND     z[1,1]  
 BV BOUND     z[1,2]  
 BV BOUND     z[1,3]  
 BV BOUND     z[2,1]  
 BV BOUND     z[2,2]  
 BV BOUND     z[2,3]  
 BV BOUND     z[3,1]  
 BV BOUND     z[3,2]  
 BV BOUND     z[3,3]  
 BV BOUND     z[4,1]  
 BV BOUND     z[4,2]  
 BV BOUND     z[4,3]  
ENDATA
